NAME : XML100_3164_17
DIMENSION : 101
NB_CLUSTERS : 34
CLUSTERING_ALG : KMeans
CLUSTERING_PARAMS : k(39)
CLUSTERS
1 0
2 9 32 92
3 35 81 88 94
4 52 74 93
5 23 25 44 100
6 34 70
7 72 75 84 98
8 1 73 85
9 16 27 56 62
10 22 60 80 87
11 18 45
12 8 42 96
13 3 5 19 21 61 68 76 99
14 15 64
15 4 11 26 30 43 51
16 6 47
17 7 37 59
18 12 40
19 10 20 50 55
20 41 57 63 67
21 46 54 97
22 2 82
23 24 31 33 78
24 38 48
25 66 95
26 36 53
27 49 58
28 14 69
29 17 83
30 65 89
31 28 71 91
32 29 77
33 13 79
34 39 86 90
EOF